8	8
2	1	5	2	1	8	3	4	4	7	0	2	6	2	7	2
1	7	5	5	3	8	0	2	6	4	4	1	7	4	2	2
1	6	2	9	4	8	0	3	3	2	5	9	7	1	6	5
4	8	6	5	3	5	2	4	0	9	7	8	1	2	5	4
1	7	5	2	7	8	3	4	4	3	2	5	0	6	6	3
6	5	2	4	5	7	1	4	0	7	4	9	3	2	7	2
6	1	5	1	2	3	3	4	0	2	7	1	4	1	1	5
0	6	6	2	4	8	2	4	7	6	5	1	1	7	3	9
